\ LP format - for model browsing. Use MPS format to capture full model detail.
Minimize
  1.71679e-08 X[1446466,1446459,1] + 3.96192e-09 X[1446461,1446489,1]
   + 6.14529e-09 X[1446964,1446483,1] + 6.69891e-10 X[1446964,1446483,2]
   + 1.24591e-08 X[1446463,1446457,1] + 2.79291e-10 X[1446965,1446964,2]
   + 2.49389e-08 X[1446466,1446461,1] + 5.8516e-10 X[1446466,1446461,3]
   + 2.71707e-08 X[1446466,1446965,1] + 2.68412e-09 X[1446462,1446484,2]
   + 1.50451e-10 X[1446459,1446458,2] + 1.24591e-08 X[1446457,1446459,1]
   + 5.0514e-10 X[1446457,1446459,3] + 1.63093e-08 X[1446966,1446459,1]
   + 1.63093e-08 X[1446463,1446966,1] + 1.49232e-08 X[1446458,1446462,1]
   + 0.001953125 O[1446456] + 0.001953125 O[1446455]
   + 0.001953125 O[1446463] + 0.001953125 O[1446457]
   + 0.001953125 O[1446458] + 0.001953125 O[1446459]
   + 0.001953125 O[1446460] + 0.001953125 O[1446461]
   + 0.001953125 O[1446464] + 0.001953125 O[1446465]
   + 0.001953125 O[1446462] + 0.001953125 O[1446468]
   + 0.001953125 O[1446466] + 0.001953125 O[1446467]
   + 0.001953125 O[1446469] + 0.001953125 O[1446474]
   + 0.001953125 O[1446470] + 0.001953125 O[1446471]
   + 0.001953125 O[1446472] + 0.001953125 O[1446475]
   + 0.001953125 O[1446478] + 0.001953125 O[1446477]
   + 0.001953125 O[1446473] + 0.001953125 O[1446476]
   + 0.001953125 O[1446479] + 0.001953125 O[1446480]
   + 0.001953125 O[1446488] + 0.001953125 O[1446483]
   + 0.001953125 O[1446484] + 0.001953125 O[1446485]
   + 0.001953125 O[1446486] + 0.001953125 O[1446489]
   + 0.001953125 O[1446490] + 0.001953125 O[1446492]
   + 0.001953125 O[1446481] + 0.001953125 O[1446482]
   + 0.001953125 O[1446487] + 0.001953125 O[1446491]
   + 0.001953125 O[1446501] + 0.001953125 O[1446494]
   + 0.001953125 O[1446497] + 0.001953125 O[1446498]
   + 0.001953125 O[1446493] + 0.001953125 O[1446495]
   + 0.001953125 O[1446496] + 0.001953125 O[1446499]
   + 0.001953125 O[1446500] + 0.001953125 O[1446502]
   + 0.001953125 O[1446504] + 0.001953125 O[1446503]
   + 0.001953125 O[1446505] + 0.001953125 O[1446506]
   + 0.001953125 O[1446509] + 0.001953125 O[1446507]
   + 0.001953125 O[1446515] + 0.001953125 O[1446508]
   + 0.001953125 O[1446512] + 0.001953125 O[1446510]
   + 0.001953125 O[1446511] + 0.001953125 O[1446513]
   + 0.001953125 O[1446514] + 0.001953125 O[1446518]
   + 0.001953125 O[1446519] + 0.001953125 O[1446520]
   + 0.001953125 O[1446521] + 0.001953125 O[1446522]
   + 0.001953125 O[1446516] + 0.001953125 O[1446517]
   + 0.001953125 O[1446523] + 0.001953125 O[1446524]
   + 0.001953125 O[1446525] + 0.001953125 O[1446526]
   + 0.001953125 O[1446533] + 0.001953125 O[1446534]
   + 0.001953125 O[1446535] + 0.001953125 O[1446536]
   + 0.001953125 O[1446537] + 0.001953125 O[1446538]
   + 0.001953125 O[1446539] + 0.001953125 O[1446540]
   + 0.001953125 O[1446541] + 0.001953125 O[1446542]
   + 0.001953125 O[1446543] + 0.001953125 O[1446544]
   + 0.001953125 O[1446545] + 0.001953125 O[1446546]
   + 0.001953125 O[1446564] + 0.001953125 O[1446565]
   + 0.001953125 O[1446566] + 0.001953125 O[1446567]
   + 0.001953125 O[1446568] + 0.001953125 O[1446569]
   + 0.001953125 O[1446570] + 0.001953125 O[1446571]
   + 0.001953125 O[1446572] + 0.001953125 O[1446573]
   + 0.001953125 O[1446574] + 0.001953125 O[1446575]
   + 0.001953125 O[1446576] + 0.001953125 O[1446577]
   + 0.001953125 O[1446578] + 0.001953125 O[1446579]
   + 0.001953125 O[1446595] + 0.001953125 O[1446596]
   + 0.001953125 O[1446597] + 0.001953125 O[1446598]
   + 0.001953125 O[1446599] + 0.001953125 O[1446600]
   + 0.001953125 O[1446601] + 0.001953125 O[1446602]
   + 0.001953125 O[1446603] + 0.001953125 O[1446604]
   + 0.001953125 O[1446605] + 0.001953125 O[1446606]
   + 0.001953125 O[1446607] + 0.001953125 O[1446608]
   + 0.001953125 O[1446609] + 0.001953125 O[1446610]
   + 0.001953125 O[1446611] + 0.001953125 O[1446612]
   + 0.001953125 O[1446613] + 0.001953125 O[1446614]
   + 0.001953125 O[1446615] + 0.001953125 O[1446616]
   + 0.001953125 O[1446617] + 0.001953125 O[1446618]
   + 0.001953125 O[1446619] + 0.001953125 O[1446620]
   + 0.001953125 O[1446621] + 0.001953125 O[1446622]
   + 0.001953125 O[1446623] + 0.001953125 O[1446624]
   + 0.001953125 O[1446625] + 0.001953125 O[1446626]
   + 0.001953125 O[1446627] + 0.001953125 O[1446628]
   + 0.001953125 O[1446629] + 0.001953125 O[1446630]
   + 0.001953125 O[1446631] + 0.001953125 O[1446632]
   + 0.001953125 O[1446633] + 0.001953125 O[1446634]
   + 0.001953125 O[1446635] + 0.001953125 O[1446636]
   + 0.001953125 O[1446637] + 0.001953125 O[1446638]
   + 0.001953125 O[1446639] + 0.001953125 O[1446640]
   + 0.001953125 O[1446641] + 0.001953125 O[1446642]
   + 0.001953125 O[1446643] + 0.001953125 O[1446671]
   + 0.001953125 O[1446672] + 0.001953125 O[1446673]
   + 0.001953125 O[1446674] + 0.001953125 O[1446675]
   + 0.001953125 O[1446676] + 0.001953125 O[1446677]
   + 0.001953125 O[1446678] + 0.001953125 O[1446679]
   + 0.001953125 O[1446680] + 0.001953125 O[1446681]
   + 0.001953125 O[1446682] + 0.001953125 O[1446683]
   + 0.001953125 O[1446684] + 0.001953125 O[1446685]
   + 0.001953125 O[1446686] + 0.001953125 O[1446687]
   + 0.001953125 O[1446688] + 0.001953125 O[1446689]
   + 0.001953125 O[1446690] + 0.001953125 O[1446691]
   + 0.001953125 O[1446692] + 0.001953125 O[1446693]
   + 0.001953125 O[1446694] + 0.001953125 O[1446695]
   + 0.001953125 O[1446696] + 0.001953125 O[1446697]
   + 0.001953125 O[1446698] + 0.001953125 O[1446699]
   + 0.001953125 O[1446700] + 0.001953125 O[1446701]
   + 0.001953125 O[1446702] + 0.001953125 O[1446717]
   + 0.001953125 O[1446718] + 0.001953125 O[1446719]
   + 0.001953125 O[1446720] + 0.001953125 O[1446721]
   + 0.001953125 O[1446722] + 0.001953125 O[1446723]
   + 0.001953125 O[1446724] + 0.001953125 O[1446725]
   + 0.001953125 O[1446726] + 0.001953125 O[1446727]
   + 0.001953125 O[1446728] + 0.001953125 O[1446729]
   + 0.001953125 O[1446730] + 0.001953125 O[1446731]
   + 0.001953125 O[1446732] + 0.001953125 O[1446733]
   + 0.001953125 O[1446734] + 0.001953125 O[1446735]
   + 0.001953125 O[1446736] + 0.001953125 O[1446737]
   + 0.001953125 O[1446738] + 0.001953125 O[1446739]
   + 0.001953125 O[1446740] + 0.001953125 O[1446741]
   + 0.001953125 O[1446742] + 0.001953125 O[1446743]
   + 0.001953125 O[1446744] + 0.001953125 O[1446745]
   + 0.001953125 O[1446746] + 0.001953125 O[1446747]
   + 0.001953125 O[1446748] + 0.001953125 O[1446749]
   + 0.001953125 O[1446750] + 0.001953125 O[1446751]
   + 0.001953125 O[1446752] + 0.001953125 O[1446753]
   + 0.001953125 O[1446754] + 0.001953125 O[1446755]
   + 0.001953125 O[1446756] + 0.001953125 O[1446757]
   + 0.001953125 O[1446788] + 0.001953125 O[1446789]
   + 0.001953125 O[1446790] + 0.001953125 O[1446791]
   + 0.001953125 O[1446792] + 0.001953125 O[1446793]
   + 0.001953125 O[1446794] + 0.001953125 O[1446795]
   + 0.001953125 O[1446796] + 0.001953125 O[1446797]
   + 0.001953125 O[1446798] + 0.001953125 O[1446799]
   + 0.001953125 O[1446800] + 0.001953125 O[1446801]
   + 0.001953125 O[1446802] + 0.001953125 O[1446803]
   + 0.001953125 O[1446804] + 0.001953125 O[1446805]
   + 0.001953125 O[1446806] + 0.001953125 O[1446807]
   + 0.001953125 O[1446808] + 0.001953125 O[1446809]
   + 0.001953125 O[1446810] + 0.001953125 O[1446811]
   + 0.001953125 O[1446812] + 0.001953125 O[1446813]
   + 0.001953125 O[1446814] + 0.001953125 O[1446815]
   + 0.001953125 O[1446816] + 0.001953125 O[1446846]
   + 0.001953125 O[1446847] + 0.001953125 O[1446848]
   + 0.001953125 O[1446849] + 0.001953125 O[1446850]
   + 0.001953125 O[1446851] + 0.001953125 O[1446852]
   + 0.001953125 O[1446853] + 0.001953125 O[1446854]
   + 0.001953125 O[1446855] + 0.001953125 O[1446856]
   + 0.001953125 O[1446857] + 0.001953125 O[1446858]
   + 0.001953125 O[1446859] + 0.001953125 O[1446860]
   + 0.001953125 O[1446861] + 0.001953125 O[1446862]
   + 0.001953125 O[1446863] + 0.001953125 O[1446864]
   + 0.001953125 O[1446865] + 0.001953125 O[1446866]
   + 0.001953125 O[1446867] + 0.001953125 O[1446868]
   + 0.001953125 O[1446869] + 0.001953125 O[1446870]
   + 0.001953125 O[1446871] + 0.001953125 O[1446872]
   + 0.001953125 O[1446873] + 0.001953125 O[1446874]
   + 0.001953125 O[1446875] + 0.001953125 O[1446876]
   + 0.001953125 O[1446877] + 0.001953125 O[1446878]
   + 0.001953125 O[1446879] + 0.001953125 O[1446880]
   + 0.001953125 O[1446881] + 0.001953125 O[1446882]
   + 0.001953125 O[1446883] + 0.001953125 O[1446884]
   + 0.001953125 O[1446885] + 0.001953125 O[1446886]
   + 0.001953125 O[1446887] + 0.001953125 O[1446888]
   + 0.001953125 O[1446889] + 0.001953125 O[1446890]
   + 0.001953125 O[1446891] + 0.001953125 O[1446892]
   + 0.001953125 O[1446893] + 0.001953125 O[1446894]
   + 0.001953125 O[1446895] + 0.001953125 O[1446896]
   + 0.001953125 O[1446897] + 0.001953125 O[1446898]
   + 0.001953125 O[1446899] + 0.001953125 O[1446900]
   + 0.001953125 O[1446901] + 0.001953125 O[1446902]
   + 0.001953125 O[1446903] + 0.001953125 O[1446904]
   + 0.001953125 O[1446905] + 0.001953125 O[1446906]
   + 0.001953125 O[1446907] + 0.001953125 O[1446908]
   + 0.001953125 O[1446909] + 0.001953125 O[1446910]
   + 0.001953125 O[1446911] + 0.001953125 O[1446912]
   + 0.001953125 O[1446913] + 0.001953125 O[1446914]
   + 0.001953125 O[1446915] + 0.001953125 O[1446916]
   + 0.001953125 O[1446917] + 0.001953125 O[1446918]
   + 0.001953125 O[1446919] + 0.001953125 O[1446920]
   + 0.001953125 O[1446953] + 0.001953125 O[1446954]
   + 0.001953125 O[1446955] + 0.001953125 O[1446956]
   + 0.001953125 O[1446957] + 0.001953125 O[1446958]
   + 0.001953125 O[1446959] + 0.001953125 O[1446960]
   + 0.001953125 O[1446961] + 0.001953125 O[1446962]
   + 0.001953125 O[1446963] + 0.001953125 O[1446964]
   + 0.001953125 O[1446965] + 0.001953125 O[1446966]
   + 0.001953125 O[1446527] + 0.001953125 O[1446528]
   + 0.001953125 O[1446529] + 0.001953125 O[1446530]
   + 0.001953125 O[1446531] + 0.001953125 O[1446532]
   + 0.001953125 O[1446547] + 0.001953125 O[1446548]
   + 0.001953125 O[1446549] + 0.001953125 O[1446550]
   + 0.001953125 O[1446551] + 0.001953125 O[1446552]
   + 0.001953125 O[1446553] + 0.001953125 O[1446554]
   + 0.001953125 O[1446555] + 0.001953125 O[1446556]
   + 0.001953125 O[1446557] + 0.001953125 O[1446558]
   + 0.001953125 O[1446559] + 0.001953125 O[1446560]
   + 0.001953125 O[1446561] + 0.001953125 O[1446562]
   + 0.001953125 O[1446563] + 0.001953125 O[1446580]
   + 0.001953125 O[1446581] + 0.001953125 O[1446582]
   + 0.001953125 O[1446583] + 0.001953125 O[1446584]
   + 0.001953125 O[1446585] + 0.001953125 O[1446586]
   + 0.001953125 O[1446587] + 0.001953125 O[1446588]
   + 0.001953125 O[1446589] + 0.001953125 O[1446590]
   + 0.001953125 O[1446591] + 0.001953125 O[1446592]
   + 0.001953125 O[1446593] + 0.001953125 O[1446594]
   + 0.001953125 O[1446644] + 0.001953125 O[1446645]
   + 0.001953125 O[1446646] + 0.001953125 O[1446647]
   + 0.001953125 O[1446648] + 0.001953125 O[1446649]
   + 0.001953125 O[1446650] + 0.001953125 O[1446651]
   + 0.001953125 O[1446652] + 0.001953125 O[1446653]
   + 0.001953125 O[1446654] + 0.001953125 O[1446655]
   + 0.001953125 O[1446656] + 0.001953125 O[1446657]
   + 0.001953125 O[1446658] + 0.001953125 O[1446659]
   + 0.001953125 O[1446660] + 0.001953125 O[1446661]
   + 0.001953125 O[1446662] + 0.001953125 O[1446663]
   + 0.001953125 O[1446664] + 0.001953125 O[1446665]
   + 0.001953125 O[1446666] + 0.001953125 O[1446667]
   + 0.001953125 O[1446668] + 0.001953125 O[1446669]
   + 0.001953125 O[1446670] + 0.001953125 O[1446703]
   + 0.001953125 O[1446704] + 0.001953125 O[1446705]
   + 0.001953125 O[1446706] + 0.001953125 O[1446707]
   + 0.001953125 O[1446708] + 0.001953125 O[1446709]
   + 0.001953125 O[1446710] + 0.001953125 O[1446711]
   + 0.001953125 O[1446712] + 0.001953125 O[1446713]
   + 0.001953125 O[1446714] + 0.001953125 O[1446715]
   + 0.001953125 O[1446716] + 0.001953125 O[1446758]
   + 0.001953125 O[1446759] + 0.001953125 O[1446760]
   + 0.001953125 O[1446761] + 0.001953125 O[1446762]
   + 0.001953125 O[1446763] + 0.001953125 O[1446764]
   + 0.001953125 O[1446765] + 0.001953125 O[1446766]
   + 0.001953125 O[1446767] + 0.001953125 O[1446768]
   + 0.001953125 O[1446769] + 0.001953125 O[1446770]
   + 0.001953125 O[1446771] + 0.001953125 O[1446772]
   + 0.001953125 O[1446773] + 0.001953125 O[1446774]
   + 0.001953125 O[1446775] + 0.001953125 O[1446776]
   + 0.001953125 O[1446777] + 0.001953125 O[1446778]
   + 0.001953125 O[1446779] + 0.001953125 O[1446780]
   + 0.001953125 O[1446781] + 0.001953125 O[1446782]
   + 0.001953125 O[1446783] + 0.001953125 O[1446784]
   + 0.001953125 O[1446785] + 0.001953125 O[1446786]
   + 0.001953125 O[1446787] + 0.001953125 O[1446817]
   + 0.001953125 O[1446818] + 0.001953125 O[1446819]
   + 0.001953125 O[1446820] + 0.001953125 O[1446821]
   + 0.001953125 O[1446822] + 0.001953125 O[1446823]
   + 0.001953125 O[1446824] + 0.001953125 O[1446825]
   + 0.001953125 O[1446826] + 0.001953125 O[1446827]
   + 0.001953125 O[1446828] + 0.001953125 O[1446829]
   + 0.001953125 O[1446830] + 0.001953125 O[1446831]
   + 0.001953125 O[1446832] + 0.001953125 O[1446833]
   + 0.001953125 O[1446834] + 0.001953125 O[1446835]
   + 0.001953125 O[1446836] + 0.001953125 O[1446837]
   + 0.001953125 O[1446838] + 0.001953125 O[1446839]
   + 0.001953125 O[1446840] + 0.001953125 O[1446841]
   + 0.001953125 O[1446842] + 0.001953125 O[1446843]
   + 0.001953125 O[1446844] + 0.001953125 O[1446845]
   + 0.001953125 O[1446921] + 0.001953125 O[1446922]
   + 0.001953125 O[1446923] + 0.001953125 O[1446924]
   + 0.001953125 O[1446925] + 0.001953125 O[1446926]
   + 0.001953125 O[1446927] + 0.001953125 O[1446928]
   + 0.001953125 O[1446929] + 0.001953125 O[1446930]
   + 0.001953125 O[1446931] + 0.001953125 O[1446932]
   + 0.001953125 O[1446933] + 0.001953125 O[1446934]
   + 0.001953125 O[1446935] + 0.001953125 O[1446936]
   + 0.001953125 O[1446937] + 0.001953125 O[1446938]
   + 0.001953125 O[1446939] + 0.001953125 O[1446940]
   + 0.001953125 O[1446941] + 0.001953125 O[1446942]
   + 0.001953125 O[1446943] + 0.001953125 O[1446944]
   + 0.001953125 O[1446945] + 0.001953125 O[1446946]
   + 0.001953125 O[1446947] + 0.001953125 O[1446948]
   + 0.001953125 O[1446949] + 0.001953125 O[1446950]
   + 0.001953125 O[1446951] + 0.001953125 O[1446952]
Subject To
 customer_flow[1446489]: - X[1446461,1446489,1] = -25
 customer_flow[1446483]: - X[1446964,1446483,1] - X[1446964,1446483,2]
   = -38
 customer_flow[1446484]: - X[1446462,1446484,2] = -700
 non_customer_flow[1446462]: X[1446462,1446484,2] - X[1446458,1446462,1]
   = 0
 non_customer_flow[1446964]: X[1446964,1446483,1] + X[1446964,1446483,2]
   - X[1446965,1446964,2] = 0
 non_customer_flow[1446458]: - X[1446459,1446458,2] + X[1446458,1446462,1]
   = 0
 capacity_constraint[1446964]: X[1446965,1446964,2] - 21086 O[1446964]
   <= 0
 capacity_constraint[1446458]: X[1446459,1446458,2]
   - 2.053585e+06 O[1446458] <= 0
 non_customer_flow[1446459]: - X[1446466,1446459,1] + X[1446459,1446458,2]
   - X[1446457,1446459,1] - X[1446457,1446459,3] - X[1446966,1446459,1]
   = 0
 non_customer_flow[1446461]: X[1446461,1446489,1] - X[1446466,1446461,1]
   - X[1446466,1446461,3] - X[1446467,1446461,1] - X[1446467,1446461,2]
   = 0
 non_customer_flow[1446965]: X[1446965,1446964,2] - X[1446466,1446965,1]
   = 0
 non_customer_flow[1446461]: X[1446461,1446489,1] - X[1446466,1446461,1]
   - X[1446466,1446461,3] - X[1446467,1446461,1] - X[1446467,1446461,2]
   = 0
 non_customer_flow[1446459]: - X[1446466,1446459,1] + X[1446459,1446458,2]
   - X[1446457,1446459,1] - X[1446457,1446459,3] - X[1446966,1446459,1]
   = 0
 non_customer_flow[1446459]: - X[1446466,1446459,1] + X[1446459,1446458,2]
   - X[1446457,1446459,1] - X[1446457,1446459,3] - X[1446966,1446459,1]
   = 0
 capacity_constraint[1446459]: X[1446466,1446459,1] + X[1446457,1446459,1]
   + X[1446457,1446459,3] + X[1446966,1446459,1] - 2.053585e+06 O[1446459]
   <= 0
 capacity_constraint[1446461]: X[1446466,1446461,1] + X[1446466,1446461,3]
   + X[1446467,1446461,1] + X[1446467,1446461,2] - 31 O[1446461] <= 0
 capacity_constraint[1446965]: X[1446466,1446965,1] - 21086 O[1446965]
   <= 0
 capacity_constraint[1446461]: X[1446466,1446461,1] + X[1446466,1446461,3]
   + X[1446467,1446461,1] + X[1446467,1446461,2] - 31 O[1446461] <= 0
 capacity_constraint[1446459]: X[1446466,1446459,1] + X[1446457,1446459,1]
   + X[1446457,1446459,3] + X[1446966,1446459,1] - 2.053585e+06 O[1446459]
   <= 0
 capacity_constraint[1446459]: X[1446466,1446459,1] + X[1446457,1446459,1]
   + X[1446457,1446459,3] + X[1446966,1446459,1] - 2.053585e+06 O[1446459]
   <= 0
 non_customer_flow[1446457]: - X[1446463,1446457,1] + X[1446457,1446459,1]
   + X[1446457,1446459,3] = 0
 non_customer_flow[1446966]: X[1446966,1446459,1] - X[1446463,1446966,1]
   = 0
 capacity_constraint[1446457]: X[1446463,1446457,1]
   - 2.011343e+06 O[1446457] <= 0
 capacity_constraint[1446966]: X[1446463,1446966,1] - 8431 O[1446966] <= 0
 alpha_constraint[5142]: - 0.84191 X[1446461,1446489,1]
   + X[1446466,1446461,1] + X[1446466,1446461,3] = 0
 alpha_constraint[5144]: - 0.15809 X[1446461,1446489,1]
   + X[1446467,1446461,1] + X[1446467,1446461,2] = 0
 alpha_constraint[10]: - 0.97943 X[1446459,1446458,2]
   + X[1446457,1446459,1] + X[1446457,1446459,3] + X[1446966,1446459,1]
   = 0
 alpha_constraint[14]: X[1446466,1446459,1] - 0.02057 X[1446459,1446458,2]
   = 0
 alpha_constraint[11]: X[1446463,1446457,1] - X[1446457,1446459,1]
   - X[1446457,1446459,3] = 0
 alpha_constraint[11]: - X[1446966,1446459,1] + X[1446463,1446966,1] = 0
 alpha_constraint[12845]: - X[1446965,1446964,2] + X[1446466,1446965,1]
   = 0
Bounds
Binaries
 O[1446456] O[1446455] O[1446463] O[1446457] O[1446458] O[1446459]
 O[1446460] O[1446461] O[1446464] O[1446465] O[1446462] O[1446468]
 O[1446466] O[1446467] O[1446469] O[1446474] O[1446470] O[1446471]
 O[1446472] O[1446475] O[1446478] O[1446477] O[1446473] O[1446476]
 O[1446479] O[1446480] O[1446488] O[1446483] O[1446484] O[1446485]
 O[1446486] O[1446489] O[1446490] O[1446492] O[1446481] O[1446482]
 O[1446487] O[1446491] O[1446501] O[1446494] O[1446497] O[1446498]
 O[1446493] O[1446495] O[1446496] O[1446499] O[1446500] O[1446502]
 O[1446504] O[1446503] O[1446505] O[1446506] O[1446509] O[1446507]
 O[1446515] O[1446508] O[1446512] O[1446510] O[1446511] O[1446513]
 O[1446514] O[1446518] O[1446519] O[1446520] O[1446521] O[1446522]
 O[1446516] O[1446517] O[1446523] O[1446524] O[1446525] O[1446526]
 O[1446533] O[1446534] O[1446535] O[1446536] O[1446537] O[1446538]
 O[1446539] O[1446540] O[1446541] O[1446542] O[1446543] O[1446544]
 O[1446545] O[1446546] O[1446564] O[1446565] O[1446566] O[1446567]
 O[1446568] O[1446569] O[1446570] O[1446571] O[1446572] O[1446573]
 O[1446574] O[1446575] O[1446576] O[1446577] O[1446578] O[1446579]
 O[1446595] O[1446596] O[1446597] O[1446598] O[1446599] O[1446600]
 O[1446601] O[1446602] O[1446603] O[1446604] O[1446605] O[1446606]
 O[1446607] O[1446608] O[1446609] O[1446610] O[1446611] O[1446612]
 O[1446613] O[1446614] O[1446615] O[1446616] O[1446617] O[1446618]
 O[1446619] O[1446620] O[1446621] O[1446622] O[1446623] O[1446624]
 O[1446625] O[1446626] O[1446627] O[1446628] O[1446629] O[1446630]
 O[1446631] O[1446632] O[1446633] O[1446634] O[1446635] O[1446636]
 O[1446637] O[1446638] O[1446639] O[1446640] O[1446641] O[1446642]
 O[1446643] O[1446671] O[1446672] O[1446673] O[1446674] O[1446675]
 O[1446676] O[1446677] O[1446678] O[1446679] O[1446680] O[1446681]
 O[1446682] O[1446683] O[1446684] O[1446685] O[1446686] O[1446687]
 O[1446688] O[1446689] O[1446690] O[1446691] O[1446692] O[1446693]
 O[1446694] O[1446695] O[1446696] O[1446697] O[1446698] O[1446699]
 O[1446700] O[1446701] O[1446702] O[1446717] O[1446718] O[1446719]
 O[1446720] O[1446721] O[1446722] O[1446723] O[1446724] O[1446725]
 O[1446726] O[1446727] O[1446728] O[1446729] O[1446730] O[1446731]
 O[1446732] O[1446733] O[1446734] O[1446735] O[1446736] O[1446737]
 O[1446738] O[1446739] O[1446740] O[1446741] O[1446742] O[1446743]
 O[1446744] O[1446745] O[1446746] O[1446747] O[1446748] O[1446749]
 O[1446750] O[1446751] O[1446752] O[1446753] O[1446754] O[1446755]
 O[1446756] O[1446757] O[1446788] O[1446789] O[1446790] O[1446791]
 O[1446792] O[1446793] O[1446794] O[1446795] O[1446796] O[1446797]
 O[1446798] O[1446799] O[1446800] O[1446801] O[1446802] O[1446803]
 O[1446804] O[1446805] O[1446806] O[1446807] O[1446808] O[1446809]
 O[1446810] O[1446811] O[1446812] O[1446813] O[1446814] O[1446815]
 O[1446816] O[1446846] O[1446847] O[1446848] O[1446849] O[1446850]
 O[1446851] O[1446852] O[1446853] O[1446854] O[1446855] O[1446856]
 O[1446857] O[1446858] O[1446859] O[1446860] O[1446861] O[1446862]
 O[1446863] O[1446864] O[1446865] O[1446866] O[1446867] O[1446868]
 O[1446869] O[1446870] O[1446871] O[1446872] O[1446873] O[1446874]
 O[1446875] O[1446876] O[1446877] O[1446878] O[1446879] O[1446880]
 O[1446881] O[1446882] O[1446883] O[1446884] O[1446885] O[1446886]
 O[1446887] O[1446888] O[1446889] O[1446890] O[1446891] O[1446892]
 O[1446893] O[1446894] O[1446895] O[1446896] O[1446897] O[1446898]
 O[1446899] O[1446900] O[1446901] O[1446902] O[1446903] O[1446904]
 O[1446905] O[1446906] O[1446907] O[1446908] O[1446909] O[1446910]
 O[1446911] O[1446912] O[1446913] O[1446914] O[1446915] O[1446916]
 O[1446917] O[1446918] O[1446919] O[1446920] O[1446953] O[1446954]
 O[1446955] O[1446956] O[1446957] O[1446958] O[1446959] O[1446960]
 O[1446961] O[1446962] O[1446963] O[1446964] O[1446965] O[1446966]
 O[1446527] O[1446528] O[1446529] O[1446530] O[1446531] O[1446532]
 O[1446547] O[1446548] O[1446549] O[1446550] O[1446551] O[1446552]
 O[1446553] O[1446554] O[1446555] O[1446556] O[1446557] O[1446558]
 O[1446559] O[1446560] O[1446561] O[1446562] O[1446563] O[1446580]
 O[1446581] O[1446582] O[1446583] O[1446584] O[1446585] O[1446586]
 O[1446587] O[1446588] O[1446589] O[1446590] O[1446591] O[1446592]
 O[1446593] O[1446594] O[1446644] O[1446645] O[1446646] O[1446647]
 O[1446648] O[1446649] O[1446650] O[1446651] O[1446652] O[1446653]
 O[1446654] O[1446655] O[1446656] O[1446657] O[1446658] O[1446659]
 O[1446660] O[1446661] O[1446662] O[1446663] O[1446664] O[1446665]
 O[1446666] O[1446667] O[1446668] O[1446669] O[1446670] O[1446703]
 O[1446704] O[1446705] O[1446706] O[1446707] O[1446708] O[1446709]
 O[1446710] O[1446711] O[1446712] O[1446713] O[1446714] O[1446715]
 O[1446716] O[1446758] O[1446759] O[1446760] O[1446761] O[1446762]
 O[1446763] O[1446764] O[1446765] O[1446766] O[1446767] O[1446768]
 O[1446769] O[1446770] O[1446771] O[1446772] O[1446773] O[1446774]
 O[1446775] O[1446776] O[1446777] O[1446778] O[1446779] O[1446780]
 O[1446781] O[1446782] O[1446783] O[1446784] O[1446785] O[1446786]
 O[1446787] O[1446817] O[1446818] O[1446819] O[1446820] O[1446821]
 O[1446822] O[1446823] O[1446824] O[1446825] O[1446826] O[1446827]
 O[1446828] O[1446829] O[1446830] O[1446831] O[1446832] O[1446833]
 O[1446834] O[1446835] O[1446836] O[1446837] O[1446838] O[1446839]
 O[1446840] O[1446841] O[1446842] O[1446843] O[1446844] O[1446845]
 O[1446921] O[1446922] O[1446923] O[1446924] O[1446925] O[1446926]
 O[1446927] O[1446928] O[1446929] O[1446930] O[1446931] O[1446932]
 O[1446933] O[1446934] O[1446935] O[1446936] O[1446937] O[1446938]
 O[1446939] O[1446940] O[1446941] O[1446942] O[1446943] O[1446944]
 O[1446945] O[1446946] O[1446947] O[1446948] O[1446949] O[1446950]
 O[1446951] O[1446952]
End
